; benchmark generated from python API
(set-info :status unknown)
(declare-fun rdi () (_ BitVec 32))
(declare-fun R () (_ BitVec 32))
(assert
 (let ((?x6 ((_ extract 31 0) rdi)))
 (let ((?x58 (bvadd (_ bv1 32) ?x6)))
 (let (($x74 (= R ?x58)))
 (let (($x11 (bvsge (_ bv10 32) ?x6)))
 (let (($x75 (and $x11 $x74)))
 (let (($x69 (= (_ bv11 32) R)))
 (let (($x41 (bvslt (_ bv10 32) ?x6)))
 (let (($x70 (and $x41 $x69)))
 (let (($x76 (or $x70 $x75)))
 (let (($x79 (not $x76)))
 (let (($x71 (= R ?x6)))
 (let (($x72 (and $x11 $x71)))
 (let (($x73 (or $x70 $x72)))
 (let (($x78 (not $x73)))
 (let (($x80 (and $x78 $x79)))
 (let (($x77 (and $x73 $x76)))
 (let (($x81 (or $x77 $x80)))
 (not $x81)))))))))))))))))))
(check-sat)

